3,5,2,2,5,7,1,1,5,2,4,2,7,3,6,6,3,7,4,1,4,2,1,1,4,5,7,4,3,5,6,2,3,1,1,5,7,5,1,6,6,6,3,4,6,1,1,1,4,6,5,3,7,6,3,1,7,6,5,5,4,1,4,4,5,7,6,4,5,2,3,6,4,5,1,1,3,4,3,3,4,5,4,4,5,4,3,3,7,7,3,5,5,6,3,2,3,2,4,3
1,1,4,3,1,7,2,5,6,7,1,3,1,5,1,1,2,5,6,7,1,2,5,4,2,3,1,3,1,4,6,2,6,4,1,6,7,1,6,5,2,7,2,5,7,5,1,4,4,4,4,2,2,4,5,1,7,7,6,2,6,4,1,6,6,3,7,4,4,2,1,1,4,4,2,6,5,3,1,3,6,6,6,2,4,3,1,1,5,3,4,4,1,5,3,2,6,1,1,1
